Problem:    
Rows:       105
Columns:    45 (34 integer, 34 binary)
Non-zeros:  302
Status:     INTEGER OPTIMAL
Objective:  value = 28.00495 (MINimum)

   No.   Row name        Activity     Lower bound   Upper bound
------ ------------    ------------- ------------- -------------
     1 r.5                      2028             0               
     2 r.6                  -1986.62       -1994.4               
     3 r.7                   28.0049             0               
     4 r.8                   16.7172      -1989.57               
     5 r.9                      2028             0               
     6 r.10                 -1975.77      -1989.15               
     7 r.11                  28.0049             0               
     8 r.12                  6.28725      -1981.53               
     9 r.13                     2028             0               
    10 r.14                    -1972      -1996.23               
    11 r.15                  28.0049             0               
    12 r.16                 -12.1851      -1993.73               
    13 r.17                  28.0049             0               
    14 r.18                  7.77785       -1994.1               
    15 r.19                     2028             0               
    16 r.20                    -1972      -1988.71               
    17 r.21                     2028             0               
    18 r.22                 -1998.93      -1998.93               
    19 r.23                  28.0049             0               
    20 r.24                   1.0726      -1997.81               
    21 r.25                        1             1             = 
    22 r.26                        1             1             = 
    23 r.27                        1             1             = 
    24 r.28                        1             1             = 
    25 r.29                        1             1             = 
    26 r.30                  10.8522       10.8522               
    27 r.31                 -10.8522       -1994.4               
    28 r.32                  1989.57       18.4723               
    29 r.33                 -1989.57      -1989.57               
    30 r.34                  14.6262         3.774               
    31 r.35                 -14.6262       -1994.4               
    32 r.36                   1971.1        6.2676               
    33 r.37                  -1971.1      -1989.57               
    34 r.38                   1994.4        5.9048               
    35 r.39                  -1994.4       -1994.4               
    36 r.40                  11.2877       11.2877               
    37 r.41                 -11.2877      -1989.57               
    38 r.42                 -1987.69      -1987.69               
    39 r.43                  15.6446      -1976.16               
    40 r.44                 -1987.69      -1987.69               
    41 r.45                  15.6446      -1976.16               
    42 r.46                  1989.15        5.6009               
    43 r.47                 -1989.15      -1989.15               
    44 r.48                    10.43         10.43               
    45 r.49                   -10.43      -1981.53               
    46 r.50                    3.774         3.774               
    47 r.51                   -3.774      -1989.15               
    48 r.52                  1981.53        6.2676               
    49 r.53                 -1981.53      -1981.53               
    50 r.54                  1983.55        5.9048               
    51 r.55                 -1983.55      -1989.15               
    52 r.56                  21.7177       11.2877               
    53 r.57                 -21.7177      -1981.53               
    54 r.58                 -1976.84      -1982.44               
    55 r.59                  5.21465      -1968.12               
    56 r.60                 -1976.84      -1982.44               
    57 r.61                  5.21465      -1968.12               
    58 r.62                  1985.37        5.6009               
    59 r.63                 -1985.37      -1996.23               
    60 r.64                  28.9023         10.43               
    61 r.65                 -28.9023      -1993.73               
    62 r.66                  1996.23       10.8522               
    63 r.67                 -1996.23      -1996.23               
    64 r.68                  18.4723       18.4723               
    65 r.69                 -18.4723      -1993.73               
    66 r.70                  1979.77        5.9048               
    67 r.71                 -1979.77      -1996.23               
    68 r.72                    40.19       11.2877               
    69 r.73                   -40.19      -1993.73               
    70 r.74                 -1973.07      -1989.52               
    71 r.75                 -13.2577      -1980.32               
    72 r.76                 -1973.07      -1989.52               
    73 r.77                 -13.2577      -1980.32               
    74 r.78                   5.6009        5.6009               
    75 r.79                  -5.6009       -1994.1               
    76 r.80                  1988.71         10.43               
    77 r.81                 -1988.71      -1988.71               
    78 r.82                  16.4531       10.8522               
    79 r.83                 -16.4531       -1994.1               
    80 r.84                  1978.28       18.4723               
    81 r.85                 -1978.28      -1988.71               
    82 r.86                  20.2271         3.774               
    83 r.87                 -20.2271       -1994.1               
    84 r.88                  1959.81        6.2676               
    85 r.89                 -1959.81      -1988.71               
    86 r.90                  6.70525      -1987.39               
    87 r.91                 -1973.07       -1975.3               
    88 r.92                  6.70525      -1987.39               
    89 r.93                 -1973.07       -1975.3               
    90 r.94                 -1987.69      -1987.69               
    91 r.95                  15.6446      -1976.16               
    92 r.96                 -1987.69      -1987.69               
    93 r.97                  15.6446      -1976.16               
    94 r.98                 -1976.84      -1982.44               
    95 r.99                  5.21465      -1968.12               
    96 r.100                -1976.84      -1982.44               
    97 r.101                 5.21465      -1968.12               
    98 r.102                -1973.07      -1989.52               
    99 r.103                -13.2577      -1980.32               
   100 r.104                -1973.07      -1989.52               
   101 r.105                -13.2577      -1980.32               
   102 r.106                 6.70525      -1987.39               
   103 r.107                -1973.07       -1975.3               
   104 r.108                 6.70525      -1987.39               
   105 r.109                -1973.07       -1975.3               

   No. Column name       Activity     Lower bound   Upper bound
------ ------------    ------------- ------------- -------------
     1 tt                    28.0049             0               
     2 s_1_1        *              1             0             1 
     3 t_1_1                 14.6262             0               
     4 s_2_1        *              0             0             1 
     5 t_2_1                 11.2877             0               
     6 s_1_2        *              1             0             1 
     7 t_1_2                   3.774             0               
     8 s_2_2        *              0             0             1 
     9 t_2_2                 21.7177             0               
    10 s_1_3        *              1             0             1 
    11 t_1_3                       0             0               
    12 s_2_3        *              0             0             1 
    13 t_2_3                   40.19             0               
    14 s_1_4        *              0             0             1 
    15 t_1_4                 20.2271             0               
    16 s_2_4        *              1             0             1 
    17 t_2_4                       0             0               
    18 s_1_5        *              1             0             1 
    19 t_1_5                 26.9323             0               
    20 s_2_5        *              0             0             1 
    21 t_2_5                 26.9323             0               
    22 u_1_1_2      *              0             0             1 
    23 u_2_1_2      *              1             0             1 
    24 u_1_1_3      *              0             0             1 
    25 u_2_1_3      *              1             0             1 
    26 u_1_1_4      *              1             0             1 
    27 u_2_1_4      *              0             0             1 
    28 u_1_2_1      *              1             0             1 
    29 u_2_2_1      *              0             0             1 
    30 u_1_2_3      *              0             0             1 
    31 u_2_2_3      *              1             0             1 
    32 u_1_2_4      *              1             0             1 
    33 u_2_2_4      *              0             0             1 
    34 u_1_3_1      *              1             0             1 
    35 u_2_3_1      *              0             0             1 
    36 u_1_3_2      *              1             0             1 
    37 u_2_3_2      *              0             0             1 
    38 u_1_3_4      *              1             0             1 
    39 u_2_3_4      *              0             0             1 
    40 u_1_4_1      *              0             0             1 
    41 u_2_4_1      *              1             0             1 
    42 u_1_4_2      *              0             0             1 
    43 u_2_4_2      *              1             0             1 
    44 u_1_4_3      *              0             0             1 
    45 u_2_4_3      *              1             0             1 

Integer feasibility conditions:

KKT.PE: max.abs.err = 2.27e-13 on row 42
        max.rel.err = 5.67e-17 on row 42
        High quality

KKT.PB: max.abs.err = 2.27e-13 on row 18
        max.rel.err = 6.29e-15 on row 26
        High quality

End of output
